c Random 4-CNF over 30 variables and 60 clauses
c Generated with `cnfgen`
c (C) 2012-2016 Massimo Lauria <lauria.massimo@gmail.com>
c https://massimolauria.github.io/cnfgen
c
c COMMAND LINE: cnfgen --output tmp-4-30-60.dimacs --output-format dimacs randkcnf 4 30 60
c
c sdimacs generated by gen-sdimacs
c
p cnf 30 60
r 0.5 1 2 3 4 5 6 7 8 9 10 11 12 13 14 15 0
e  16 17 18 19 20 21 22 23 24 25 26 27 28 29 30 0
1 10 -11 12 0
3 18 -28 30 0
-7 -15 18 30 0
-2 -8 -12 -13 0
5 -14 15 20 0
-4 -9 16 -21 0
-5 -7 18 -28 0
-3 15 16 -28 0
1 -13 18 -23 0
5 -7 -10 -11 0
3 7 -28 30 0
-9 12 -16 27 0
8 16 20 -29 0
-2 10 -13 23 0
-3 -13 22 -23 0
3 -8 -15 -27 0
-7 12 22 25 0
-8 -14 15 -24 0
-2 -6 -11 12 0
8 11 -15 29 0
-4 12 15 -25 0
-4 -7 -9 -29 0
10 12 21 26 0
-2 7 15 29 0
8 12 13 -17 0
2 4 -11 -28 0
-5 -12 -18 -30 0
-2 -13 -17 -21 0
2 -19 -20 30 0
9 -12 21 30 0
3 -11 -23 27 0
5 -6 18 24 0
-2 -4 -20 23 0
-13 16 25 -29 0
4 -11 -12 -20 0
-1 5 10 -30 0
2 21 23 30 0
4 -10 -14 17 0
3 -10 -19 -22 0
8 -10 19 21 0
5 12 25 30 0
2 10 -18 -21 0
-12 15 -17 -28 0
-1 14 -22 -30 0
2 8 22 26 0
-2 3 11 -20 0
-4 -7 -14 -17 0
14 -18 20 26 0
-14 -22 25 26 0
-10 -13 22 -25 0
11 -17 26 -28 0
6 -7 12 -13 0
-7 -8 13 -16 0
-2 -6 -7 12 0
4 -9 18 24 0
3 10 14 17 0
10 12 -16 -28 0
2 21 -26 -27 0
2 4 11 15 0
-7 8 11 -22 0
